c *********************************
c * Circuit generated by BenCGen
c *
c * RippleCarryAdder_15_15_15_InOutT
c *
c * Ports with 1 gate(s): 1
c * Ports with 2 gate(s): 76
c * Total gates: 77
c *********************************
p cnf 107 260
1 48 0
-1 -48 0
1 -47 0
48 -47 0
-1 -48 47 0
1 16 -50 0
-1 16 50 0
1 -16 50 0
-1 -16 -50 0
50 47 -31 0
-50 47 31 0
50 -47 31 0
-50 -47 -31 0
47 -51 0
50 -51 0
-47 -50 51 0
16 -52 0
1 -52 0
-16 -1 52 0
-51 49 0
-52 49 0
51 52 -49 0
2 17 -54 0
-2 17 54 0
2 -17 54 0
-2 -17 -54 0
54 49 -32 0
-54 49 32 0
54 -49 32 0
-54 -49 -32 0
49 -55 0
54 -55 0
-49 -54 55 0
17 -56 0
2 -56 0
-17 -2 56 0
-55 53 0
-56 53 0
55 56 -53 0
3 18 -58 0
-3 18 58 0
3 -18 58 0
-3 -18 -58 0
58 53 -33 0
-58 53 33 0
58 -53 33 0
-58 -53 -33 0
53 -59 0
58 -59 0
-53 -58 59 0
18 -60 0
3 -60 0
-18 -3 60 0
-59 57 0
-60 57 0
59 60 -57 0
4 19 -62 0
-4 19 62 0
4 -19 62 0
-4 -19 -62 0
62 57 -34 0
-62 57 34 0
62 -57 34 0
-62 -57 -34 0
57 -63 0
62 -63 0
-57 -62 63 0
19 -64 0
4 -64 0
-19 -4 64 0
-63 61 0
-64 61 0
63 64 -61 0
5 20 -66 0
-5 20 66 0
5 -20 66 0
-5 -20 -66 0
66 61 -35 0
-66 61 35 0
66 -61 35 0
-66 -61 -35 0
61 -67 0
66 -67 0
-61 -66 67 0
20 -68 0
5 -68 0
-20 -5 68 0
-67 65 0
-68 65 0
67 68 -65 0
6 21 -70 0
-6 21 70 0
6 -21 70 0
-6 -21 -70 0
70 65 -36 0
-70 65 36 0
70 -65 36 0
-70 -65 -36 0
65 -71 0
70 -71 0
-65 -70 71 0
21 -72 0
6 -72 0
-21 -6 72 0
-71 69 0
-72 69 0
71 72 -69 0
7 22 -74 0
-7 22 74 0
7 -22 74 0
-7 -22 -74 0
74 69 -37 0
-74 69 37 0
74 -69 37 0
-74 -69 -37 0
69 -75 0
74 -75 0
-69 -74 75 0
22 -76 0
7 -76 0
-22 -7 76 0
-75 73 0
-76 73 0
75 76 -73 0
8 23 -78 0
-8 23 78 0
8 -23 78 0
-8 -23 -78 0
78 73 -38 0
-78 73 38 0
78 -73 38 0
-78 -73 -38 0
73 -79 0
78 -79 0
-73 -78 79 0
23 -80 0
8 -80 0
-23 -8 80 0
-79 77 0
-80 77 0
79 80 -77 0
9 24 -82 0
-9 24 82 0
9 -24 82 0
-9 -24 -82 0
82 77 -39 0
-82 77 39 0
82 -77 39 0
-82 -77 -39 0
77 -83 0
82 -83 0
-77 -82 83 0
24 -84 0
9 -84 0
-24 -9 84 0
-83 81 0
-84 81 0
83 84 -81 0
10 25 -86 0
-10 25 86 0
10 -25 86 0
-10 -25 -86 0
86 81 -40 0
-86 81 40 0
86 -81 40 0
-86 -81 -40 0
81 -87 0
86 -87 0
-81 -86 87 0
25 -88 0
10 -88 0
-25 -10 88 0
-87 85 0
-88 85 0
87 88 -85 0
11 26 -90 0
-11 26 90 0
11 -26 90 0
-11 -26 -90 0
90 85 -41 0
-90 85 41 0
90 -85 41 0
-90 -85 -41 0
85 -91 0
90 -91 0
-85 -90 91 0
26 -92 0
11 -92 0
-26 -11 92 0
-91 89 0
-92 89 0
91 92 -89 0
12 27 -94 0
-12 27 94 0
12 -27 94 0
-12 -27 -94 0
94 89 -42 0
-94 89 42 0
94 -89 42 0
-94 -89 -42 0
89 -95 0
94 -95 0
-89 -94 95 0
27 -96 0
12 -96 0
-27 -12 96 0
-95 93 0
-96 93 0
95 96 -93 0
13 28 -98 0
-13 28 98 0
13 -28 98 0
-13 -28 -98 0
98 93 -43 0
-98 93 43 0
98 -93 43 0
-98 -93 -43 0
93 -99 0
98 -99 0
-93 -98 99 0
28 -100 0
13 -100 0
-28 -13 100 0
-99 97 0
-100 97 0
99 100 -97 0
14 29 -102 0
-14 29 102 0
14 -29 102 0
-14 -29 -102 0
102 97 -44 0
-102 97 44 0
102 -97 44 0
-102 -97 -44 0
97 -103 0
102 -103 0
-97 -102 103 0
29 -104 0
14 -104 0
-29 -14 104 0
-103 101 0
-104 101 0
103 104 -101 0
15 30 -105 0
-15 30 105 0
15 -30 105 0
-15 -30 -105 0
105 101 -45 0
-105 101 45 0
105 -101 45 0
-105 -101 -45 0
101 -106 0
105 -106 0
-101 -105 106 0
30 -107 0
15 -107 0
-30 -15 107 0
-106 46 0
-107 46 0
106 107 -46 0
